scenarios/sols/small/emicp_milp/022.sol
objective value:                     1.52381103523794
x(0,5,0)                                            1 	(obj:0)
x(1,3,1)                                            1 	(obj:0)
x(2,10,0)                                           1 	(obj:0)
x(3,7,1)                                            1 	(obj:0)
x(4,2,0)                                            1 	(obj:0)
x(5,4,0)                                            1 	(obj:0)
x(7,11,1)                                           1 	(obj:0)
x(10,0,0)                                           1 	(obj:0)
x(11,1,1)                                           1 	(obj:0)
xc(2,9)                                             1 	(obj:0)
xc(7,5)                                             1 	(obj:0)
u(2,0)                              0.957435783049599 	(obj:0)
u(3,1)                             0.0879195192817115 	(obj:0)
u(4,0)                              0.711821282439649 	(obj:0)
u(5,0)                                0.1958924277974 	(obj:0)
u(7,0)                               1.52381103523794 	(obj:0)
u(7,1)                               1.03688795049434 	(obj:0)
u(10,0)                              1.52381103523794 	(obj:0)
u(10,1)                             0.725181237165501 	(obj:0)
u(11,0)                               0.6160448757793 	(obj:0)
u(11,1)                              1.52381103523794 	(obj:0)
u(12,0)                               0.5539643713335 	(obj:0)
u(12,1)                               1.0063072642179 	(obj:0)
u(13,0)                               0.5322781109445 	(obj:0)
u(14,0)                             0.320036426844799 	(obj:0)
u(14,1)                               0.7912474541788 	(obj:0)
u(15,0)                               0.1878804321611 	(obj:0)
u(15,1)                             0.623867612360401 	(obj:0)
u(16,0)                               0.5223380257309 	(obj:0)
u(16,1)                            0.0690501143241011 	(obj:0)
u(17,0)                                0.298328254847 	(obj:0)
u(17,1)                               0.3582477084305 	(obj:0)
u(18,0)                               0.3558352171223 	(obj:0)
u(18,1)                             0.498391115408801 	(obj:0)
u(19,0)                             0.686345317808501 	(obj:0)
u(19,1)                               1.1387159051076 	(obj:0)
f(0,5,0)                                            1 	(obj:0)
f(1,3,1)                                            1 	(obj:0)
f(2,9,0)                                            1 	(obj:0)
f(2,9,1)                                            1 	(obj:0)
f(2,9,2)                                            1 	(obj:0)
f(2,9,3)                                            1 	(obj:0)
f(2,9,4)                                            1 	(obj:0)
f(3,7,1)                                            1 	(obj:0)
f(3,7,3)                                            1 	(obj:0)
f(4,2,0)                                            1 	(obj:0)
f(4,2,1)                                            1 	(obj:0)
f(4,2,3)                                            1 	(obj:0)
f(4,2,4)                                            1 	(obj:0)
f(5,4,0)                                            1 	(obj:0)
f(5,4,1)                                            1 	(obj:0)
f(5,4,3)                                            1 	(obj:0)
f(7,5,1)                                            1 	(obj:0)
f(7,5,3)                                            1 	(obj:0)
z_r(0,)                              1.52381103523794 	(obj:0)
z_r(1,)                              1.52381103523794 	(obj:0)
z                                    1.52381103523794 	(obj:1)
