scenarios/sols/small/emicp_milp/022.out
b'The following solver is parallelized by UG version 0.9.1 [GitHash: ]\n'
b'SCIP version 7.0.2 [precision: 8 byte] [memory: block] [mode: optimized] [LP solver: SoPlex 5.0.2] [GitHash: e9d280a398]\n'
b'Copyright (C) 2002-2020 Konrad-Zuse-Zentrum fuer Informationstechnik Berlin (ZIB)\n'
b'External codes: \n'
b'  Readline 7.0         GNU library for command line editing (gnu.org/s/readline)\n'
b'  SoPlex 5.0.2         Linear Programming Solver developed at Zuse Institute Berlin (soplex.zib.de) [GitHash: e24c304e]\n'
b'  CppAD 20180000.0     Algorithmic Differentiation of C++ algorithms developed by B. Bell (www.coin-or.org/CppAD)\n'
b'  ZLIB 1.2.11          General purpose compression library by J. Gailly and M. Adler (zlib.net)\n'
b'  GMP 6.1.2            GNU Multiple Precision Arithmetic Library developed by T. Granlund (gmplib.org)\n'
b'  ZIMPL 3.4.0          Zuse Institute Mathematical Programming Language developed by T. Koch (zimpl.zib.de)\n'
b'Default LC presolving (default).\n'
b'Original Problem   :\n'
b'  Problem name     : 022\n'
b'  Variables        : 5320 (1200 binary, 0 integer, 0 implicit integer, 4120 continuous)\n'
b'  Constraints      : 13884\n'
b'  Objective sense  : minimize\n'
b'Presolved Problem  :\n'
b'  Variables        : 775 (196 binary, 0 integer, 0 implicit integer, 579 continuous)\n'
b'  Constraints      : 866\n'
b'Constraints        : Number\n'
b'  varbound         : 180 \n'
b'  knapsack         : 4 \n'
b'  setppc           : 39 \n'
b'  linear           : 640 \n'
b'  logicor          : 3 \n'
b'** Instance transfer method used: 0\n'
b'** ParaScipInstance copy does not increase the number of variables. **\n'
b'LC is working with racing ramp-up and with rebuilding tree after racing.\n'
b'                               Nodes    Active                                            \n'
b'     Time          Nodes        Left   Solvers     Best Integer        Best Node       Gap     Best Node(S)    Gap(S)\n'
b'*       0              0           1         8           2.6415                -         -\n'
b'*       0              0           1         8           1.7724                -         -\n'
b'*       0              0           1         8           1.5578                -         -\n'
b'*       1              0           1         8           1.5550                -         -\n'
b'Racing ramp-up finished after 4.7400 seconds. Selected strategy 7.\n'
b'        5           1594         416         8           1.5550           1.1595     34.11%           1.1595     34.11%\n'
b'       10           5581         486         8           1.5550           1.1595     34.11%           1.1595     34.11%\n'
b'*      11           6909         392         8           1.5238           1.1595     31.42%           1.1595     31.42%\n'
b'       15          17805          63         8           1.5238           1.3461     13.20%           1.3461     13.20%\n'
b'       17          19375           0         0           1.5238           1.5238      0.00%\n'
b'SCIP Status        : problem is solved\n'
b'Total Time         : 16.59\n'
b'  solving          : 16.59\n'
b'  presolving       : 0.05 (included in solving)\n'
b'B&B Tree           :\n'
b'  nodes (total)    : 19375\n'
b'Solution           :\n'
b'  Solutions found  : 5\n'
b'  Primal Bound     : +1.52381103523794e+00\n'
b'  Dual Bound       : +1.52381103523794e+00\n'
b'Gap                : 0.00000 %\n'
